c Random generated cnf formula, satisfiable: false
p cnf 10 50
-9 10 3 0
9 5 2 0
-5 6 -9 0
-6 -4 10 0
1 8 -10 0
7 -4 9 0
3 1 2 0
6 2 5 0
5 -8 -6 0
3 1 2 0
-6 -1 -9 0
3 8 5 0
9 3 -6 0
7 8 6 0
-6 9 5 0
4 8 1 0
-2 -1 -10 0
-2 -5 -1 0
-8 -7 3 0
-3 1 5 0
3 6 -7 0
3 8 -2 0
-1 10 -7 0
-4 5 -10 0
10 9 -5 0
-6 10 -4 0
-10 9 -2 0
-4 6 10 0
9 6 -8 0
9 -10 -2 0
-2 7 -6 0
9 -6 8 0
-8 -4 -5 0
9 -3 1 0
-10 6 9 0
1 -10 -3 0
-5 9 -3 0
-8 2 -6 0
7 -9 6 0
-10 6 4 0
-6 -4 -2 0
2 4 -6 0
2 -7 3 0
-4 5 1 0
-3 -1 -4 0
-10 -9 7 0
-7 5 6 0
1 -7 -5 0
-8 1 -5 0
7 -9 -5 0
